
Gurobi 9.1.2 (win64) logging started Tue Jun 20 16:03:16 2023

Changed value of parameter logfile to resultTrans-Dist-20230620T1601flex_all.log
   Prev:   Default: 
Changed value of parameter MIPFocus to 1
   Prev: 0  Min: 0  Max: 3  Default: 0
No parameters matching 'Parallel' found
Changed value of parameter Threads to 32
   Prev: 0  Min: 0  Max: 1024  Default: 0
Changed value of parameter MIPGap to 0.01
   Prev: 0.0001  Min: 0.0  Max: inf  Default: 0.0001
Changed value of parameter SimplexPricing to 2
   Prev: -1  Min: -1  Max: 3  Default: -1
Changed value of parameter DegenMoves to 0
   Prev: -1  Min: -1  Max: 2000000000  Default: -1
Gurobi Optimizer version 9.1.2 build v9.1.2rc0 (win64)
Thread count: 4 physical cores, 4 logical processors, using up to 32 threads

Warning: Thread count (32) is larger than processor count (4)
         Reduce the value of the Threads parameter to improve performance

Optimize a model with 152870 rows, 98652 columns and 587521 nonzeros
Model fingerprint: 0x277cd963
Variable types: 98436 continuous, 216 integer (84 binary)
Coefficient statistics:
  Matrix range     [1e-08, inf]
  Objective range  [1e+00, 1e+00]
  Bounds range     [1e+00, 1e+00]
  RHS range        [2e-02, 2e+03]
Warning: Model contains large matrix coefficient range
         Consider reformulating model or setting NumericFocus parameter
         to avoid numerical issues.
Presolve removed 90626 rows and 79098 columns
Presolve time: 1.37s
Presolved: 62244 rows, 19554 columns, 240287 nonzeros
Variable types: 19460 continuous, 94 integer (94 binary)

Deterministic concurrent LP optimizer: primal and dual simplex (primal and dual model)
Showing first log only...

Presolve removed 76 rows and 28 columns
Presolved: 62168 rows, 19526 columns, 239751 nonzeros


Root simplex log...

Iteration    Objective       Primal Inf.    Dual Inf.      Time
   12309    3.0457255e+08   5.267630e-03   8.631425e+08      5s
   12924    3.0479032e+08   0.000000e+00   3.621874e+09      7s
Concurrent spin time: 0.49s

Solved with dual simplex (primal model)

Root relaxation: objective 3.044564e+08, 39973 iterations, 8.42 seconds

    Nodes    |    Current Node    |     Objective Bounds      |     Work
 Expl Unexpl |  Obj  Depth IntInf | Incumbent    BestBd   Gap | It/Node Time

     0     0 3.0446e+08    0    3          - 3.0446e+08      -     -   10s
H    0     0                    3.044571e+08 3.0446e+08  0.00%     -   10s

Explored 1 nodes (39973 simplex iterations) in 10.46 seconds
Thread count was 32 (of 4 available processors)

Solution count 1: 3.04457e+08 

Optimal solution found (tolerance 1.00e-02)
Best objective 3.044570676506e+08, best bound 3.044564298396e+08, gap 0.0002%
